
Gurobi 11.0.0 (linux64) logging started Fri Apr 12 14:03:30 2024

Set parameter LogFile to value "/lustre1/scratch/348/vsc34888/JointResearch/05.Models/06.Benchmarking/K.Investments_per_hour/RTS24_ByStages_nc80/openStarNet_RTS24_ByStages_nc80.log"
Set parameter Method to value 2
Set parameter MIPFocus to value 1
Set parameter Presolve to value 2
Set parameter RINS to value 100
Set parameter MIPGap to value 0.01
Set parameter Threads to value 36
Set parameter TimeLimit to value 259200
Set parameter IterationLimit to value 760000000
Gurobi Optimizer version 11.0.0 build v11.0.0rc2 (linux64 - "Rocky Linux 8.8 (Green Obsidian)")

CPU model: Intel(R) Xeon(R) Gold 6240 CPU @ 2.60GHz, instruction set [SSE2|AVX|AVX2|AVX512]
Thread count: 36 physical cores, 36 logical processors, using up to 36 threads

Optimize a model with 31123 rows, 18792 columns and 83565 nonzeros
Model fingerprint: 0x73b756cd
Variable types: 18762 continuous, 30 integer (30 binary)
Coefficient statistics:
  Matrix range     [3e-02, 4e+02]
  Objective range  [1e+00, 1e+00]
  Bounds range     [4e-04, 3e+00]
  RHS range        [4e-04, 3e+00]
Presolve removed 16696 rows and 8869 columns
Presolve time: 0.18s
Presolved: 14427 rows, 9923 columns, 50880 nonzeros
Variable types: 9893 continuous, 30 integer (30 binary)
Found heuristic solution: objective 296.6268980
Root relaxation presolved: 14427 rows, 9923 columns, 50880 nonzeros

Root barrier log...

Ordering time: 0.01s

Barrier statistics:
 Dense cols : 30
 AA' NZ     : 1.067e+05
 Factor NZ  : 2.782e+05 (roughly 12 MB of memory)
 Factor Ops : 5.923e+06 (less than 1 second per iteration)
 Threads    : 36

                  Objective                Residual
Iter       Primal          Dual         Primal    Dual     Compl     Time
   0   8.14725882e+05 -5.12018681e+07  6.37e+00 1.17e+02  4.99e+03     0s
   1   1.38818785e+05 -1.48300717e+07  9.02e-01 1.20e-09  7.45e+02     0s
   2   4.59844636e+04 -2.31821599e+06  1.60e-01 3.16e-10  9.35e+01     0s
   3   2.04678781e+04 -3.33951688e+05  3.25e-03 2.88e-11  1.17e+01     0s
   4   5.61863986e+03 -2.84055930e+04  2.43e-04 2.76e-12  1.12e+00     0s
   5   7.51060502e+02 -4.28414897e+03  7.07e-06 9.09e-13  1.65e-01     0s
   6   4.91914313e+02 -1.17115603e+03  1.34e-06 9.09e-13  5.46e-02     0s
   7   3.56999910e+02 -3.82629277e+02  5.89e-07 9.09e-13  2.43e-02     0s
   8   2.68384210e+02 -5.79438880e+00  2.62e-07 4.55e-13  8.99e-03     0s
   9   2.32868649e+02  8.06777516e+01  1.52e-07 9.09e-13  4.99e-03     0s
  10   2.19032501e+02  1.42267439e+02  1.11e-07 1.36e-12  2.52e-03     0s
  11   1.94367195e+02  1.71345667e+02  3.40e-08 9.09e-13  7.55e-04     0s
  12   1.89916795e+02  1.76790930e+02  2.14e-08 1.82e-12  4.31e-04     0s
  13   1.87180996e+02  1.78808122e+02  1.28e-08 1.82e-12  2.75e-04     0s
  14   1.85585826e+02  1.80313522e+02  8.10e-09 9.09e-13  1.73e-04     0s
  15   1.84419893e+02  1.81233926e+02  4.44e-09 4.55e-13  1.05e-04     0s
  16   1.84034390e+02  1.81984130e+02  3.35e-09 9.09e-13  6.73e-05     0s
  17   1.83648107e+02  1.82297722e+02  2.14e-09 9.09e-13  4.43e-05     0s
  18   1.83350267e+02  1.82520975e+02  1.29e-09 4.55e-13  2.72e-05     1s
  19   1.83236596e+02  1.82757361e+02  9.34e-10 4.55e-13  1.57e-05     1s
  20   1.83048688e+02  1.82803372e+02  3.30e-10 9.09e-13  8.05e-06     1s
  21   1.82993346e+02  1.82913400e+02  1.49e-10 9.09e-13  2.62e-06     1s
  22   1.82981080e+02  1.82931526e+02  1.14e-10 9.09e-13  1.63e-06     1s
  23   1.82956747e+02  1.82938515e+02  2.62e-10 9.09e-13  5.98e-07     1s
  24   1.82950799e+02  1.82941297e+02  3.36e-10 9.09e-13  3.12e-07     1s
  25   1.82945175e+02  1.82943465e+02  2.10e-09 9.09e-13  5.61e-08     1s
  26   1.82944640e+02  1.82944190e+02  1.48e-10 9.09e-13  1.48e-08     1s
  27   1.82944624e+02  1.82944284e+02  1.25e-09 1.43e-11  1.11e-08     1s
  28   1.82944620e+02  1.82944391e+02  1.52e-09 1.06e-11  7.50e-09     1s
  29   1.82944611e+02  1.82944610e+02  2.72e-09 9.09e-13  1.52e-11     1s

Barrier solved model in 29 iterations and 0.59 seconds (0.57 work units)
Optimal objective 1.82944611e+02


Root relaxation: objective 1.829446e+02, 1849 iterations, 0.38 seconds (0.25 work units)

    Nodes    |    Current Node    |     Objective Bounds      |     Work
 Expl Unexpl |  Obj  Depth IntInf | Incumbent    BestBd   Gap | It/Node Time

     0     0  182.94461    0   22  296.62690  182.94461  38.3%     -    0s
     0     0  186.11516    0   17  296.62690  186.11516  37.3%     -    1s
H    0     0                     278.2066738  186.11516  33.1%     -    1s
     0     0  186.15479    0   18  278.20667  186.15479  33.1%     -    1s
H    0     0                     266.4474777  186.15594  30.1%     -    1s
     0     0  186.15594    0   16  266.44748  186.15594  30.1%     -    1s
     0     0  186.19605    0   16  266.44748  186.19605  30.1%     -    1s
     0     0  186.76246    0   17  266.44748  186.76246  29.9%     -    2s
H    0     0                     262.1277169  186.84182  28.7%     -    2s
     0     0  186.84182    0   16  262.12772  186.84182  28.7%     -    2s
     0     0  186.84310    0   16  262.12772  186.84310  28.7%     -    2s
     0     0  186.84310    0   16  262.12772  186.84310  28.7%     -    2s
     0     0  187.06153    0   16  262.12772  187.06153  28.6%     -    2s
     0     0  187.06218    0   13  262.12772  187.06218  28.6%     -    3s
     0     0  187.06338    0   16  262.12772  187.06338  28.6%     -    3s
     0     0  187.06338    0   16  262.12772  187.06338  28.6%     -    3s
     0     0  187.07660    0   13  262.12772  187.07660  28.6%     -    3s
     0     0  187.07756    0   12  262.12772  187.07756  28.6%     -    3s
     0     0  187.07779    0   12  262.12772  187.07779  28.6%     -    3s
H    0     0                     257.9009160  187.07779  27.5%     -    4s
H    0     0                     249.6271497  187.10310  25.0%     -    4s
     0     0  187.10310    0   15  249.62715  187.10310  25.0%     -    4s
H    0     0                     211.3086602  187.10310  11.5%     -   23s
     0     2  187.10310    0   15  211.30866  187.10310  11.5%     -   23s
    57    90  190.61517    6   15  211.30866  190.61517  9.79%   755   25s
    93   126  191.48573    7   16  211.30866  190.63654  9.78%   655   45s
H   97   126                     211.2292880  190.63654  9.75%   640   45s
   947   434  199.35856   11   12  211.22929  191.60478  9.29%   378   50s
  1205   471     cutoff   14       211.22929  191.60478  9.29%   370   55s
  1893   586     cutoff   10       211.22929  193.60507  8.34%   329   67s
H 2052   586                     210.9651735  193.60507  8.23%   323   67s
  3202   716     cutoff   14       210.96517  198.52664  5.90%   291   71s
  4498   789     cutoff   11       210.96517  204.57371  3.03%   268   98s
  4698   837  205.70607   13    7  210.96517  204.57371  3.03%   266  118s
  4992   839  209.66336   16    7  210.96517  204.57371  3.03%   261  145s
  9339   216  210.75982   15    8  210.96517  208.17867  1.32%   208  150s

Cutting planes:
  Gomory: 6
  Implied bound: 77
  MIR: 514
  Relax-and-lift: 45

Explored 10340 nodes (2057826 simplex iterations) in 150.43 seconds (213.97 work units)
Thread count was 36 (of 36 available processors)

Solution count 9: 210.965 211.229 211.309 ... 296.627

Optimal solution found (tolerance 1.00e-02)
Best objective 2.109651734601e+02, best bound 2.089321300535e+02, gap 0.9637%

Gurobi 11.0.0 (linux64) logging started Fri Apr 12 14:06:04 2024

Set parameter LogFile to value "/lustre1/scratch/348/vsc34888/JointResearch/05.Models/06.Benchmarking/K.Investments_per_hour/RTS24_ByStages_nc80/openStarNet_RTS24_ByStages_nc80.log"
Set parameter Method to value 2
Set parameter MIPFocus to value 1
Set parameter Presolve to value 2
Set parameter RINS to value 100
Set parameter MIPGap to value 0.01
Set parameter Threads to value 36
Set parameter TimeLimit to value 259200
Set parameter IterationLimit to value 760000000
Gurobi Optimizer version 11.0.0 build v11.0.0rc2 (linux64 - "Rocky Linux 8.8 (Green Obsidian)")

CPU model: Intel(R) Xeon(R) Gold 6240 CPU @ 2.60GHz, instruction set [SSE2|AVX|AVX2|AVX512]
Thread count: 36 physical cores, 36 logical processors, using up to 36 threads

Optimize a model with 31123 rows, 18762 columns and 73935 nonzeros
Model fingerprint: 0x81a957fb
Coefficient statistics:
  Matrix range     [3e-02, 4e+02]
  Objective range  [1e+00, 1e+00]
  Bounds range     [4e-04, 3e+00]
  RHS range        [4e-04, 4e+01]
Presolve removed 26136 rows and 10469 columns
Presolve time: 0.04s
Presolved: 4987 rows, 8373 columns, 22320 nonzeros

Ordering time: 0.00s

Barrier statistics:
 AA' NZ     : 1.126e+04
 Factor NZ  : 3.879e+04 (roughly 4 MB of memory)
 Factor Ops : 5.497e+05 (less than 1 second per iteration)
 Threads    : 1

                  Objective                Residual
Iter       Primal          Dual         Primal    Dual     Compl     Time
   0   1.12802771e+06 -4.42262518e+07  3.24e+00 1.49e+03  1.46e+04     0s
   1   1.65384419e+05 -2.03355863e+07  4.39e-01 2.16e-11  2.56e+03     0s
   2   5.80089660e+04 -5.74165367e+06  1.14e-01 2.55e-11  5.64e+02     0s
   3   3.09417747e+04 -1.06698860e+06  9.53e-03 2.73e-11  8.96e+01     0s
   4   1.96377657e+04 -1.21159283e+05  2.60e-04 3.92e-11  1.11e+01     0s
   5   7.96377692e+03 -2.30401717e+04  5.29e-05 7.28e-12  2.43e+00     0s
   6   1.03056374e+03 -3.01659029e+03  3.58e-06 7.28e-12  3.18e-01     0s
   7   4.50944483e+02 -1.08640134e+03  1.92e-08 7.28e-12  1.21e-01     0s
   8   3.39027835e+02 -1.32724358e+02  6.21e-09 7.28e-12  3.70e-02     0s
   9   2.67137785e+02  1.29634808e+02  2.42e-09 3.64e-12  1.08e-02     0s
  10   2.36502441e+02  1.74313488e+02  1.07e-09 7.28e-12  4.88e-03     0s
  11   2.22177990e+02  1.96562289e+02  4.50e-10 3.64e-12  2.01e-03     0s
  12   2.15973505e+02  2.06589378e+02  1.93e-10 7.28e-12  7.37e-04     0s
  13   2.12977909e+02  2.10392269e+02  7.47e-11 7.28e-12  2.03e-04     0s
  14   2.11399292e+02  2.10841989e+02  1.76e-11 7.28e-12  4.37e-05     0s
  15   2.10971735e+02  2.10952779e+02  3.62e-12 3.64e-12  1.49e-06     0s
  16   2.10965304e+02  2.10964485e+02  1.84e-12 3.64e-12  6.43e-08     0s
  17   2.10965174e+02  2.10965169e+02  1.14e-12 5.46e-12  3.31e-10     0s
  18   2.10965173e+02  2.10965173e+02  8.50e-13 3.64e-12  3.31e-13     0s

Barrier solved model in 18 iterations and 0.09 seconds (0.09 work units)
Optimal objective 2.10965173e+02

Crossover log...

     932 DPushes remaining with DInf 0.0000000e+00                 0s
       0 DPushes remaining with DInf 0.0000000e+00                 0s

     243 PPushes remaining with PInf 0.0000000e+00                 0s
       0 PPushes remaining with PInf 0.0000000e+00                 0s

  Push phase complete: Pinf 0.0000000e+00, Dinf 1.1073512e-12      0s

Iteration    Objective       Primal Inf.    Dual Inf.      Time
     263    2.1096517e+02   0.000000e+00   0.000000e+00      0s

Use crossover to convert LP symmetric solution to basic solution...
Crossover log...

       0 DPushes remaining with DInf 0.0000000e+00                 0s

     153 PPushes remaining with PInf 0.0000000e+00                 0s
       0 PPushes remaining with PInf 0.0000000e+00                 0s

  Push phase complete: Pinf 0.0000000e+00, Dinf 1.1633434e-12      0s

Iteration    Objective       Primal Inf.    Dual Inf.      Time
     421    2.1096517e+02   0.000000e+00   0.000000e+00      0s

Solved in 421 iterations and 0.13 seconds (0.11 work units)
Optimal objective  2.109651735e+02
